    -8   -27   308   398    20    10
     4   -24   249   339    10    10
    -4    -1    77   167    10    10
     9   -12   352   442    10    10
   -10   -15   304   394    10    10
   -14   -24   155   245    20    10
     8   -28   266   356    20    10
    19   -11   247   337    20    10
   -19   -10    73   163    10    10
     0     0   117   207    20    10
    -3     2    80   170    10    10
     1   -13   205   295    10    10
    -2    26   165   255    10    10
    24     3   323   413    10    10
     6     3   128   218    10    10
    15    14
   -12    17
   -21     7
     7   -20
    11   -20
    29    22
